120
150
52
47
52
97
38
48
30
34
22
84
44
35
97
81
51
89
62
40
48
27
51
77
72
64
85
52
72
24
100
46
46
75
29
35
29
85
24
51
77
48
24
57
46
47
42
61
47
26
39
86
64
64
86
48
100
51
29
75
75
51
51
95
55
83
67
55
40
55
93
56
97
75
75
31
44
75
64
85
100
48
81
62
58
58
34
62
75
100
35
70
72
97
46
70
42
38
29
55
68
82
35
35
83
67
65
38
47
44
42
64
59
90
97
99
55
99
64
86
70
67
